c Sudoku solution
p cnf 729 0
174 0
225 0
233 0
347 0
361 0
388 0
457 0
462 0
486 0
543 0
556 0
595 0
622 0
679 0
683 0
694 0
764 0
444 0
569 0
797 0
815 0
435 0
828 0
842 0
891 0
498 0
471 0
919 0
413 0
429 0
932 0
967 0
837 0
924 0
723 0
884 0
985 0
789 0
772 0
978 0
859 0
326 0
617 0
636 0
521 0
716 0
731 0
127 0
577 0
582 0
375 0
873 0
996 0
866 0
953 0
941 0
651 0
163 0
393 0
339 0
138 0
518 0
534 0
665 0
648 0
745 0
758 0
155 0
268 0
276 0
287 0
181 0
112 0
211 0
314 0
199 0
292 0
146 0
249 0
254 0
352 0
